NAME : tsp45_27.211.tour
COMMENT : Length = 211
COMMENT : Found by LKH [Keld Helsgaun]
TYPE : TOUR
DIMENSION : 45
TOUR_SECTION
1
36
26
31
27
20
4
19
6
40
21
18
41
39
10
12
34
14
30
16
13
33
43
2
45
11
24
15
9
22
42
5
3
35
17
37
44
25
23
8
7
29
32
28
38
-1
EOF
